\Problem name: 

Minimize
OBJROW: 111.15789 C157 -111.15789 C158 -111.15789 C159 -111.15789 C160 -111.15789 C161 -111.15789 C162 + 111.15789 C163 + 111.15789 C164 -111.15789 C165 + 111.15789 C166
 -111.15789 C167 -111.15789 C168 -111.15789 C169 + 111.15789 C170 -111.15789 C171 -111.15789 C172 -111.15789 C173 -111.15789 C174 + 111.15789 C175 + 111.15789 C176
 -111.15789 C177 + 111.15789 C178 -111.15789 C179 + 111.15789 C180 + 111.15789 C181 + 111.15789 C182 + 111.15789 C183 + 111.15789 C184 + 111.15789 C185 + 111.15789 C186
 -111.15789 C187 -111.15789 C188 -111.15789 C189
Subject To
R114:  C157 + C158 + C159 + C160 <= 1
R115:  C161 + C162 + C163 <= 1
R116:  C164 + C165 <= 1
R117:  C166 + C167 + C168 + C169 + C171 <= 1
R118:  -230 C166 -200 C172 -400 C173 <= -5
R119:  300 C159 + 300 C160 + 285 C161 + 285 C162 + 265 C164 + 265 C165 + 230 C168 + 230 C169 + 190 C170 + 200 C178
 + 400 C179 + 200 C180 + 400 C181 + 200 C182 + 400 C183 + 200 C184 + 400 C185 + 200 C186 + 400 C187 <= 2700
R120:  -300 C159 -300 C160 -285 C161 -285 C162 -265 C164 -265 C165 -230 C168 -230 C169 -190 C170 -200 C178
 -400 C179 -200 C180 -400 C181 -200 C182 -400 C183 -200 C184 -400 C185 -200 C186 -400 C187 <= -2600
R121:  -300 C160 -200 C186 -400 C187 <= -100
R122:  -300 C157 -285 C162 -265 C165 -190 C170 -200 C182 -400 C183 <= -900
R123:  -300 C157 -300 C159 -285 C162 -265 C165 -230 C169 -190 C170 -200 C182 -400 C183 -200 C184 -400 C185
 <= -1656
R124:  -285 C161 -265 C164 -230 C167 -200 C178 -400 C179 <= -335
R125:  -285 C161 -265 C164 -230 C167 -230 C168 -200 C178 -400 C179 -200 C180 -400 C181 <= -1026
R126:  -300 C158 -200 C174 -400 C175 <= -5
R127:  -300 C158 -200 C174 -400 C175 -200 C176 -400 C177 <= -500
R128:  -285 C163 -200 C188 -400 C189 <= -270
constr(15):  - C157 + C158 + C159 + C160 + C161 + C162 - C163 - C164 + C165 - C166
 + C167 + C168 + C169 - C170 + C171 + C172 + C173 + C174 - C175 - C176
 + C177 - C178 + C179 - C180 - C181 - C182 - C183 - C184 - C185 - C186
 + C187 + C188 + C189 >= -14
Bounds
 0 <= C157 <= 1
 0 <= C158 <= 1
 0 <= C159 <= 1
 0 <= C160 <= 1
 0 <= C161 <= 1
 0 <= C162 <= 1
 0 <= C163 <= 1
 0 <= C164 <= 1
 0 <= C165 <= 1
 0 <= C166 <= 1
 0 <= C167 <= 1
 0 <= C168 <= 1
 0 <= C169 <= 1
 0 <= C170 <= 1
 0 <= C171 <= 1
 0 <= C172 <= 1
 0 <= C173 <= 1
 0 <= C174 <= 1
 0 <= C175 <= 1
 0 <= C176 <= 1
 0 <= C177 <= 1
 0 <= C178 <= 1
 0 <= C179 <= 1
 0 <= C180 <= 1
 0 <= C181 <= 1
 0 <= C182 <= 1
 0 <= C183 <= 1
 0 <= C184 <= 1
 0 <= C185 <= 1
 0 <= C186 <= 1
 0 <= C187 <= 1
 0 <= C188 <= 1
 0 <= C189 <= 1
Integers
C157 C158 C159 C160 C161 C162 C163 C164 C165 C166 
C167 C168 C169 C170 C171 C172 C173 C174 C175 C176 
C177 C178 C179 C180 C181 C182 C183 C184 C185 C186 
C187 C188 C189 
End
